p cnf 386 460
-18 -12 17 21 22 0
-18 -12 17 21 -22 0
-18 -12 17 -21 23 0
-18 -12 17 -21 -23 0
9 -14 -8 24 25 0
9 -14 -8 24 -25 0
9 -14 -8 -24 26 0
9 -14 -8 -24 -26 0
19 15 -18 27 28 0
19 15 -18 27 -28 0
19 15 -18 -27 29 0
19 15 -18 -27 -29 0
-12 15 4 30 31 0
-12 15 4 30 -31 0
-12 15 4 -30 32 0
-12 15 4 -30 -32 0
-4 16 -2 33 34 0
-4 16 -2 33 -34 0
-4 16 -2 -33 35 0
-4 16 -2 -33 -35 0
-17 18 8 36 37 0
-17 18 8 36 -37 0
-17 18 8 -36 38 0
-17 18 8 -36 -38 0
18 17 -16 39 40 0
18 17 -16 39 -40 0
18 17 -16 -39 41 0
18 17 -16 -39 -41 0
4 2 6 42 43 0
4 2 6 42 -43 0
4 2 6 -42 44 0
4 2 6 -42 -44 0
-1 15 4 45 46 0
-1 15 4 45 -46 0
-1 15 4 -45 47 0
-1 15 4 -45 -47 0
15 2 11 48 49 0
15 2 11 48 -49 0
15 2 11 -48 50 0
15 2 11 -48 -50 0
-5 20 -15 51 52 0
-5 20 -15 51 -52 0
-5 20 -15 -51 53 0
-5 20 -15 -51 -53 0
-16 5 12 54 55 0
-16 5 12 54 -55 0
-16 5 12 -54 56 0
-16 5 12 -54 -56 0
4 -10 -9 57 58 0
4 -10 -9 57 -58 0
4 -10 -9 -57 59 0
4 -10 -9 -57 -59 0
-7 -8 17 60 61 0
-7 -8 17 60 -61 0
-7 -8 17 -60 62 0
-7 -8 17 -60 -62 0
19 14 4 63 64 0
19 14 4 63 -64 0
19 14 4 -63 65 0
19 14 4 -63 -65 0
-17 8 -5 66 67 0
-17 8 -5 66 -67 0
-17 8 -5 -66 68 0
-17 8 -5 -66 -68 0
-8 -1 18 69 70 0
-8 -1 18 69 -70 0
-8 -1 18 -69 71 0
-8 -1 18 -69 -71 0
-3 4 15 72 73 0
-3 4 15 72 -73 0
-3 4 15 -72 74 0
-3 4 15 -72 -74 0
7 16 -15 75 76 0
7 16 -15 75 -76 0
7 16 -15 -75 77 0
7 16 -15 -75 -77 0
6 -5 7 78 79 0
6 -5 7 78 -79 0
6 -5 7 -78 80 0
6 -5 7 -78 -80 0
-14 10 17 81 82 0
-14 10 17 81 -82 0
-14 10 17 -81 83 0
-14 10 17 -81 -83 0
12 9 2 84 85 0
12 9 2 84 -85 0
12 9 2 -84 86 0
12 9 2 -84 -86 0
15 11 -5 87 88 0
15 11 -5 87 -88 0
15 11 -5 -87 89 0
15 11 -5 -87 -89 0
-17 -8 -10 90 91 0
-17 -8 -10 90 -91 0
-17 -8 -10 -90 92 0
-17 -8 -10 -90 -92 0
-5 16 -1 93 94 0
-5 16 -1 93 -94 0
-5 16 -1 -93 95 0
-5 16 -1 -93 -95 0
-1 -18 4 96 97 0
-1 -18 4 96 -97 0
-1 -18 4 -96 98 0
-1 -18 4 -96 -98 0
-18 -9 14 99 100 0
-18 -9 14 99 -100 0
-18 -9 14 -99 101 0
-18 -9 14 -99 -101 0
20 13 -12 102 103 0
20 13 -12 102 -103 0
20 13 -12 -102 104 0
20 13 -12 -102 -104 0
-19 -1 9 105 106 0
-19 -1 9 105 -106 0
-19 -1 9 -105 107 0
-19 -1 9 -105 -107 0
15 -7 -4 108 109 0
15 -7 -4 108 -109 0
15 -7 -4 -108 110 0
15 -7 -4 -108 -110 0
7 9 2 111 112 0
7 9 2 111 -112 0
7 9 2 -111 113 0
7 9 2 -111 -113 0
-20 -14 -19 114 115 0
-20 -14 -19 114 -115 0
-20 -14 -19 -114 116 0
-20 -14 -19 -114 -116 0
18 4 12 117 118 0
18 4 12 117 -118 0
18 4 12 -117 119 0
18 4 12 -117 -119 0
1 -5 -4 120 121 0
1 -5 -4 120 -121 0
1 -5 -4 -120 122 0
1 -5 -4 -120 -122 0
-13 -9 -1 123 124 0
-13 -9 -1 123 -124 0
-13 -9 -1 -123 125 0
-13 -9 -1 -123 -125 0
-15 2 19 126 127 0
-15 2 19 126 -127 0
-15 2 19 -126 128 0
-15 2 19 -126 -128 0
-2 4 17 129 130 0
-2 4 17 129 -130 0
-2 4 17 -129 131 0
-2 4 17 -129 -131 0
-20 -11 3 132 133 0
-20 -11 3 132 -133 0
-20 -11 3 -132 134 0
-20 -11 3 -132 -134 0
-20 -18 13 135 136 0
-20 -18 13 135 -136 0
-20 -18 13 -135 137 0
-20 -18 13 -135 -137 0
3 -12 -18 138 139 0
3 -12 -18 138 -139 0
3 -12 -18 -138 140 0
3 -12 -18 -138 -140 0
1 -12 3 141 142 0
1 -12 3 141 -142 0
1 -12 3 -141 143 0
1 -12 3 -141 -143 0
20 -14 8 144 145 0
20 -14 8 144 -145 0
20 -14 8 -144 146 0
20 -14 8 -144 -146 0
-17 -4 -10 147 148 0
-17 -4 -10 147 -148 0
-17 -4 -10 -147 149 0
-17 -4 -10 -147 -149 0
12 16 -5 150 151 0
12 16 -5 150 -151 0
12 16 -5 -150 152 0
12 16 -5 -150 -152 0
8 20 13 153 154 0
8 20 13 153 -154 0
8 20 13 -153 155 0
8 20 13 -153 -155 0
4 3 -1 156 157 0
4 3 -1 156 -157 0
4 3 -1 -156 158 0
4 3 -1 -156 -158 0
-11 -5 -7 159 160 0
-11 -5 -7 159 -160 0
-11 -5 -7 -159 161 0
-11 -5 -7 -159 -161 0
-6 -8 4 162 163 0
-6 -8 4 162 -163 0
-6 -8 4 -162 164 0
-6 -8 4 -162 -164 0
-8 -10 18 165 166 0
-8 -10 18 165 -166 0
-8 -10 18 -165 167 0
-8 -10 18 -165 -167 0
-3 2 6 168 169 0
-3 2 6 168 -169 0
-3 2 6 -168 170 0
-3 2 6 -168 -170 0
-4 -10 -5 171 172 0
-4 -10 -5 171 -172 0
-4 -10 -5 -171 173 0
-4 -10 -5 -171 -173 0
6 -20 5 174 175 0
6 -20 5 174 -175 0
6 -20 5 -174 176 0
6 -20 5 -174 -176 0
10 -18 -9 177 178 0
10 -18 -9 177 -178 0
10 -18 -9 -177 179 0
10 -18 -9 -177 -179 0
14 7 -8 180 181 0
14 7 -8 180 -181 0
14 7 -8 -180 182 0
14 7 -8 -180 -182 0
9 3 19 183 184 0
9 3 19 183 -184 0
9 3 19 -183 185 0
9 3 19 -183 -185 0
-8 -19 15 186 187 0
-8 -19 15 186 -187 0
-8 -19 15 -186 188 0
-8 -19 15 -186 -188 0
-10 20 -9 189 190 0
-10 20 -9 189 -190 0
-10 20 -9 -189 191 0
-10 20 -9 -189 -191 0
20 -14 -16 192 193 0
20 -14 -16 192 -193 0
20 -14 -16 -192 194 0
20 -14 -16 -192 -194 0
18 -13 -19 195 196 0
18 -13 -19 195 -196 0
18 -13 -19 -195 197 0
18 -13 -19 -195 -197 0
-20 -8 -2 198 199 0
-20 -8 -2 198 -199 0
-20 -8 -2 -198 200 0
-20 -8 -2 -198 -200 0
-3 -19 10 201 202 0
-3 -19 10 201 -202 0
-3 -19 10 -201 203 0
-3 -19 10 -201 -203 0
-7 -20 3 204 205 0
-7 -20 3 204 -205 0
-7 -20 3 -204 206 0
-7 -20 3 -204 -206 0
13 14 1 207 208 0
13 14 1 207 -208 0
13 14 1 -207 209 0
13 14 1 -207 -209 0
-1 19 -13 210 211 0
-1 19 -13 210 -211 0
-1 19 -13 -210 212 0
-1 19 -13 -210 -212 0
-18 5 19 213 214 0
-18 5 19 213 -214 0
-18 5 19 -213 215 0
-18 5 19 -213 -215 0
-10 5 -9 216 217 0
-10 5 -9 216 -217 0
-10 5 -9 -216 218 0
-10 5 -9 -216 -218 0
3 8 -19 219 220 0
3 8 -19 219 -220 0
3 8 -19 -219 221 0
3 8 -19 -219 -221 0
-12 16 6 222 223 0
-12 16 6 222 -223 0
-12 16 6 -222 224 0
-12 16 6 -222 -224 0
13 5 -6 225 226 0
13 5 -6 225 -226 0
13 5 -6 -225 227 0
13 5 -6 -225 -227 0
-17 2 -15 228 229 0
-17 2 -15 228 -229 0
-17 2 -15 -228 230 0
-17 2 -15 -228 -230 0
-5 11 1 231 232 0
-5 11 1 231 -232 0
-5 11 1 -231 233 0
-5 11 1 -231 -233 0
-12 -11 10 234 235 0
-12 -11 10 234 -235 0
-12 -11 10 -234 236 0
-12 -11 10 -234 -236 0
-8 -1 -12 237 238 0
-8 -1 -12 237 -238 0
-8 -1 -12 -237 239 0
-8 -1 -12 -237 -239 0
-1 -19 20 240 241 0
-1 -19 20 240 -241 0
-1 -19 20 -240 242 0
-1 -19 20 -240 -242 0
6 -10 -2 243 244 0
6 -10 -2 243 -244 0
6 -10 -2 -243 245 0
6 -10 -2 -243 -245 0
3 -7 -1 246 247 0
3 -7 -1 246 -247 0
3 -7 -1 -246 248 0
3 -7 -1 -246 -248 0
16 7 -8 249 250 0
16 7 -8 249 -250 0
16 7 -8 -249 251 0
16 7 -8 -249 -251 0
-16 17 7 252 253 0
-16 17 7 252 -253 0
-16 17 7 -252 254 0
-16 17 7 -252 -254 0
11 9 3 255 256 0
11 9 3 255 -256 0
11 9 3 -255 257 0
11 9 3 -255 -257 0
-8 13 -6 258 259 0
-8 13 -6 258 -259 0
-8 13 -6 -258 260 0
-8 13 -6 -258 -260 0
13 18 -19 261 262 0
13 18 -19 261 -262 0
13 18 -19 -261 263 0
13 18 -19 -261 -263 0
-17 -2 5 264 265 0
-17 -2 5 264 -265 0
-17 -2 5 -264 266 0
-17 -2 5 -264 -266 0
-9 4 12 267 268 0
-9 4 12 267 -268 0
-9 4 12 -267 269 0
-9 4 12 -267 -269 0
7 -9 -5 270 271 0
7 -9 -5 270 -271 0
7 -9 -5 -270 272 0
7 -9 -5 -270 -272 0
3 -18 -2 273 274 0
3 -18 -2 273 -274 0
3 -18 -2 -273 275 0
3 -18 -2 -273 -275 0
-2 12 14 276 277 0
-2 12 14 276 -277 0
-2 12 14 -276 278 0
-2 12 14 -276 -278 0
-8 18 9 279 280 0
-8 18 9 279 -280 0
-8 18 9 -279 281 0
-8 18 9 -279 -281 0
14 -18 -10 282 283 0
14 -18 -10 282 -283 0
14 -18 -10 -282 284 0
14 -18 -10 -282 -284 0
-7 -3 -4 285 286 0
-7 -3 -4 285 -286 0
-7 -3 -4 -285 287 0
-7 -3 -4 -285 -287 0
3 15 13 288 289 0
3 15 13 288 -289 0
3 15 13 -288 290 0
3 15 13 -288 -290 0
-19 -6 -18 291 292 0
-19 -6 -18 291 -292 0
-19 -6 -18 -291 293 0
-19 -6 -18 -291 -293 0
294 295 297 301 309 0
294 295 297 301 -309 0
294 295 297 -301 310 0
294 295 297 -301 -310 0
294 295 -297 302 311 0
294 295 -297 302 -311 0
294 295 -297 -302 312 0
294 295 -297 -302 -312 0
294 -295 298 303 313 0
294 -295 298 303 -313 0
294 -295 298 -303 314 0
294 -295 298 -303 -314 0
294 -295 -298 304 315 0
294 -295 -298 304 -315 0
294 -295 -298 -304 316 0
294 -295 -298 -304 -316 0
-294 296 299 305 317 0
-294 296 299 305 -317 0
-294 296 299 -305 318 0
-294 296 299 -305 -318 0
-294 296 -299 306 319 0
-294 296 -299 306 -319 0
-294 296 -299 -306 320 0
-294 296 -299 -306 -320 0
-294 -296 300 307 321 0
-294 -296 300 307 -321 0
-294 -296 300 -307 322 0
-294 -296 300 -307 -322 0
-294 -296 -300 308 323 0
-294 -296 -300 308 -323 0
-294 -296 -300 -308 324 0
-294 -296 -300 -308 -324 0
325 326 328 332 340 0
325 326 328 332 -340 0
325 326 328 -332 341 0
325 326 328 -332 -341 0
325 326 -328 333 342 0
325 326 -328 333 -342 0
325 326 -328 -333 343 0
325 326 -328 -333 -343 0
325 -326 329 334 344 0
325 -326 329 334 -344 0
325 -326 329 -334 345 0
325 -326 329 -334 -345 0
325 -326 -329 335 346 0
325 -326 -329 335 -346 0
325 -326 -329 -335 347 0
325 -326 -329 -335 -347 0
-325 327 330 336 348 0
-325 327 330 336 -348 0
-325 327 330 -336 349 0
-325 327 330 -336 -349 0
-325 327 -330 337 350 0
-325 327 -330 337 -350 0
-325 327 -330 -337 351 0
-325 327 -330 -337 -351 0
-325 -327 331 338 352 0
-325 -327 331 338 -352 0
-325 -327 331 -338 353 0
-325 -327 331 -338 -353 0
-325 -327 -331 339 354 0
-325 -327 -331 339 -354 0
-325 -327 -331 -339 355 0
-325 -327 -331 -339 -355 0
356 357 359 363 371 0
356 357 359 363 -371 0
356 357 359 -363 372 0
356 357 359 -363 -372 0
356 357 -359 364 373 0
356 357 -359 364 -373 0
356 357 -359 -364 374 0
356 357 -359 -364 -374 0
356 -357 360 365 375 0
356 -357 360 365 -375 0
356 -357 360 -365 376 0
356 -357 360 -365 -376 0
356 -357 -360 366 377 0
356 -357 -360 366 -377 0
356 -357 -360 -366 378 0
356 -357 -360 -366 -378 0
-356 358 361 367 379 0
-356 358 361 367 -379 0
-356 358 361 -367 380 0
-356 358 361 -367 -380 0
-356 358 -361 368 381 0
-356 358 -361 368 -381 0
-356 358 -361 -368 382 0
-356 358 -361 -368 -382 0
-356 -358 362 369 383 0
-356 -358 362 369 -383 0
-356 -358 362 -369 384 0
-356 -358 362 -369 -384 0
-356 -358 -362 370 385 0
-356 -358 -362 370 -385 0
-356 -358 -362 -370 386 0
-356 -358 -362 -370 -386 0

